2052.1 0
0 72 70 74 75 73 24 0
0 17 99 26 20 0
0 52 51 80 76 79 78 77 69 71 0
0 11 93 89 88 94 98 95 23 0
0 97 91 96 90 92 18 0
0 62 63 43 38 56 0
0 68 44 29 67 31 36 47 48 34 42 37 46 54 59 53 0
0 61 55 57 35 45 49 25 0
0 83 85 81 82 86 84 87 50 60 33 40 39 41 28 30 58 32 66 65 64 0
0 19 14 22 12 15 13 27 0
0 16 4 3 5 10 1 2 9 8 6 100 7 21 0
